c generated by sgen
p cnf 49 108
-2 -3 -4 0
-1 -3 -4 0
-1 -2 -4 0
-1 -2 -3 0
-6 -7 -8 0
-5 -7 -8 0
-5 -6 -8 0
-5 -6 -7 0
-10 -11 -12 0
-9 -11 -12 0
-9 -10 -12 0
-9 -10 -11 0
-14 -15 -16 0
-13 -15 -16 0
-13 -14 -16 0
-13 -14 -15 0
-18 -19 -20 0
-17 -19 -20 0
-17 -18 -20 0
-17 -18 -19 0
-22 -23 -24 0
-21 -23 -24 0
-21 -22 -24 0
-21 -22 -23 0
-26 -27 -28 0
-25 -27 -28 0
-25 -26 -28 0
-25 -26 -27 0
-30 -31 -32 0
-29 -31 -32 0
-29 -30 -32 0
-29 -30 -31 0
-34 -35 -36 0
-33 -35 -36 0
-33 -34 -36 0
-33 -34 -35 0
-38 -39 -40 0
-37 -39 -40 0
-37 -38 -40 0
-37 -38 -39 0
-42 -43 -44 0
-41 -43 -44 0
-41 -42 -44 0
-41 -42 -43 0
-45 -46 -47 0
-45 -46 -48 0
-45 -46 -49 0
-45 -47 -48 0
-45 -47 -49 0
-45 -48 -49 0
-46 -47 -48 0
-46 -47 -49 0
-46 -48 -49 0
-47 -48 -49 0
6 48 11 0
42 48 11 0
42 6 11 0
42 6 48 0
13 43 23 0
39 43 23 0
39 13 23 0
39 13 43 0
24 35 10 0
47 35 10 0
47 24 10 0
47 24 35 0
27 33 37 0
4 33 37 0
4 27 37 0
4 27 33 0
1 18 41 0
45 18 41 0
45 1 41 0
45 1 18 0
49 28 22 0
20 28 22 0
20 49 22 0
20 49 28 0
30 40 19 0
12 40 19 0
12 30 19 0
12 30 40 0
32 2 5 0
21 2 5 0
21 32 5 0
21 32 2 0
31 38 15 0
46 38 15 0
46 31 15 0
46 31 38 0
17 16 7 0
36 16 7 0
36 17 7 0
36 17 16 0
26 34 44 0
29 34 44 0
29 26 44 0
29 26 34 0
3 14 8 0
3 14 25 0
3 14 9 0
3 8 25 0
3 8 9 0
3 25 9 0
14 8 25 0
14 8 9 0
14 25 9 0
8 25 9 0
